1
!PREC=A
ENCUT=300
ISYM=0
ALGO=Fast
EDIFF=1.000000e-03
NELM=128
VDW = 11


IBRION=-1 !-1 0 1 2: scf md bfgs_opt cg_opt
POTIM=0.5
NSW=0
SMASS=-1
!TEBEG=300
!TEEND=300

ISIF=2
ISMEAR=0
SIGMA=0.20000
KSPACING=1
KGAMMA=.TRUE.

PSTRESS=0.0

LREAL=FALSE
NPAR=1
KPAR=1

LCHARGE=.FALSE.
LWAVE=.FALSE.

